c Sudoku solution
p cnf 729 0
158 0
186 0
218 0
267 0
293 0
319 0
324 0
342 0
355 0
452 0
516 0
543 0
561 0
622 0
638 0
646 0
657 0
673 0
813 0
821 0
889 0
896 0
854 0
559 0
699 0
476 0
914 0
939 0
429 0
433 0
534 0
123 0
363 0
256 0
225 0
336 0
527 0
968 0
766 0
862 0
749 0
728 0
926 0
878 0
448 0
169 0
279 0
982 0
783 0
751 0
953 0
232 0
712 0
117 0
131 0
144 0
241 0
284 0
774 0
494 0
487 0
681 0
411 0
615 0
465 0
664 0
585 0
572 0
598 0
175 0
192 0
388 0
991 0
977 0
795 0
737 0
835 0
847 0
945 0
371 0
397 0
